25
3 0 20 0
3 0 1 0
3 0 3 0
3 0 4 0
3 0 16 0
3 0 12 0
3 0 14 0
3 0 5 0
3 0 19 0
3 0 6 0
3 0 8 0
4 0 9 17 0
3 0 25 0
3 0 7 0
3 0 22 0
3 0 13 0
3 0 34 0
3 0 33 0
4 0 2 10 0
5 0 11 23 15 0
3 0 21 0
5 0 30 35 29 0
4 0 18 26 0
4 0 32 36 0
6 0 24 27 31 28 0
